coords = array2d(1..64, 1..2, [680, 23, 749, 306, 117, 546, 645, 301, 24, 168,
    387, 684, 728, 631, 813, 235, 157, 515, 574, 520, 94, 661, 634,
    128, 388, 150, 827, 908, 657, 764, 637, 959, 918, 967, 462, 162,
    999, 926, 705, 166, 943, 133, 932, 431, 182, 133, 680, 866, 484,
    85, 260, 639, 935, 767, 401, 270, 179, 668, 32, 434, 874, 585,
    280, 76, 250, 261, 987, 301, 696, 640, 136, 17, 418, 697, 255,
    997, 580, 526, 738, 983, 139, 652, 1, 844, 183, 392, 526, 177,
    398, 837, 630, 435, 906, 116, 924, 872, 859, 950, 548, 400, 731,
    470, 59, 24, 833, 691, 942, 163, 676, 674, 482, 205, 249, 41, 464,
    382, 570, 358, 175, 758, 313, 584, 945, 653, 285, 236, 111, 526]);

n = 64;

